
        $ From http://www.csplib.org/Problems/prob009/data/helmut.pdf
        $ Problem number 83
        $ Sequence length : 25
        language ESSENCE' 1.0
        letting sizemaster be 320
        letting sizes be sequence(2,7,8,9,12,14,15,21,23,35,38,44,46,49,53,54,56,63,96,101,103,105,108,112,116)
        